Version identifier: 20.1.0.0 | 2020-11-10 | 9bedb6d68
Tried aggregator 2 times.
MIP Presolve eliminated 1307 rows and 743 columns.
MIP Presolve modified 2556 coefficients.
Aggregator did 146 substitutions.
Reduced MIP has 1103 rows, 918 columns, and 3515 nonzeros.
Reduced MIP has 220 binaries, 698 generals, 0 SOSs, and 0 indicators.
Presolve time = 0.02 sec. (5.66 ticks)
Found incumbent of value 61.000000 after 0.02 sec. (9.54 ticks)
Probing fixed 30 vars, tightened 238 bounds.
Probing time = 0.00 sec. (1.13 ticks)
Tried aggregator 1 time.
Detecting symmetries...
MIP Presolve eliminated 450 rows and 30 columns.
MIP Presolve modified 62 coefficients.
Reduced MIP has 653 rows, 888 columns, and 2135 nonzeros.
Reduced MIP has 249 binaries, 639 generals, 0 SOSs, and 0 indicators.
Presolve time = 0.01 sec. (2.48 ticks)
Probing time = 0.00 sec. (0.17 ticks)
Clique table members: 1.
MIP emphasis: balance optimality and feasibility.
MIP search method: dynamic search.
Parallel mode: deterministic, using up to 24 threads.
Root relaxation solution time = 0.00 sec. (1.95 ticks)

        Nodes                                         Cuts/
   Node  Left     Objective  IInf  Best Integer    Best Bound    ItCnt     Gap

*     0+    0                           61.0000        0.0000           100.00%
      0     0        0.0000    36       61.0000        0.0000      193  100.00%
      0     0        1.6667   165       61.0000     Cuts: 119      384   97.27%
*     0+    0                           16.0000        1.6667            89.58%
      0     0        2.2500   189       16.0000      Cuts: 47      432   85.94%
      0     0        3.2143   144       16.0000      Cuts: 67      497   79.91%
      0     0        3.3333   142       16.0000      Cuts: 43      525   79.17%
      0     0        3.7500   145       16.0000      Cuts: 39      579   76.56%
      0     0        4.0000   194       16.0000      Cuts: 41      615   75.00%
      0     0        4.0000   186       16.0000      Cuts: 41      653   75.00%
      0     0        4.0000   211       16.0000      Cuts: 32      694   75.00%
      0     0        4.0000    45       16.0000       Cuts: 2      697   75.00%
      0     0        4.0000   102       16.0000      Cuts: 53      781   75.00%
*     0+    0                           12.0000        4.0000            66.67%
*     0+    0                           10.0000        4.0000            60.00%
      0     0        cutoff             10.0000       10.0000      781    0.00%
Elapsed time = 0.22 sec. (120.83 ticks, tree = 0.01 MB, solutions = 4)

Implied bound cuts applied:  23
Mixed integer rounding cuts applied:  3
Zero-half cuts applied:  61
Gomory fractional cuts applied:  9

Root node processing (before b&c):
  Real time             =    0.22 sec. (120.93 ticks)
Parallel b&c, 24 threads:
  Real time             =    0.00 sec. (0.00 ticks)
  Sync time (average)   =    0.00 sec.
  Wait time (average)   =    0.00 sec.
                          ------------
Total (root+branch&cut) =    0.22 sec. (120.93 ticks)

Solution status = Optimal
Solution LB = 10
Solution UB = 10
Runtime = 0.229122 seconds
	Command being timed: "/home/min/git_repos/CS598MEBProject/CNT-ILP/build/cnt -s 2 ./output/k6_n30/simC_c1_k6_n30_u1_s3_del02.input-right.cnp"
	User time (seconds): 1.40
	System time (seconds): 0.03
	Percent of CPU this job got: 578%
	Elapsed (wall clock) time (h:mm:ss or m:ss): 0:00.24
	Average shared text size (kbytes): 0
	Average unshared data size (kbytes): 0
	Average stack size (kbytes): 0
	Average total size (kbytes): 0
	Maximum resident set size (kbytes): 66168
	Average resident set size (kbytes): 0
	Major (requiring I/O) page faults: 0
	Minor (reclaiming a frame) page faults: 13603
	Voluntary context switches: 1960
	Involuntary context switches: 219
	Swaps: 0
	File system inputs: 0
	File system outputs: 16
	Socket messages sent: 0
	Socket messages received: 0
	Signals delivered: 0
	Page size (bytes): 4096
	Exit status: 0
